nN = 4;
nR = 17;
nH = 1;

a = [[6, 12, 17, 24, 22, 7, 13, 18, 7, 14, 6, 16, 11, 6, 20, 17, 6], [13, 19, 22, 16, 9, 22, 10, 19, 14, 10, 14, 16, 24, 23, 10, 15, 24], [23, 21, 7, 20, 20, 18, 15, 21, 11, 7, 24, 21, 20, 16, 18, 11, 6], [11, 10, 15, 19, 11, 6, 7, 16, 20, 9, 11, 17, 7, 11, 13, 25, 23]];
c = [[[0, 0, 0, 0, 0, 0, 0, 0, 0, 0, 0, 0, 0, 0, 0, 0, 0], [38, 47, 47, 49, 37, 44, 41, 30, 43, 50, 32, 42, 37, 34, 37, 40, 45], [30, 33, 40, 43, 49, 31, 43, 41, 44, 38, 40, 49, 40, 50, 38, 38, 42], [36, 34, 47, 43, 48, 31, 42, 35, 47, 43, 31, 44, 47, 31, 33, 36, 30]], [[0, 0, 0, 0, 0, 0, 0, 0, 0, 0, 0, 0, 0, 0, 0, 0, 0], [0, 0, 0, 0, 0, 0, 0, 0, 0, 0, 0, 0, 0, 0, 0, 0, 0], [35, 45, 40, 48, 38, 37, 49, 40, 32, 47, 46, 43, 49, 41, 45, 49, 45], [33, 33, 30, 30, 38, 34, 48, 45, 49, 32, 49, 35, 34, 42, 32, 34, 30]], [[0, 0, 0, 0, 0, 0, 0, 0, 0, 0, 0, 0, 0, 0, 0, 0, 0], [0, 0, 0, 0, 0, 0, 0, 0, 0, 0, 0, 0, 0, 0, 0, 0, 0], [0, 0, 0, 0, 0, 0, 0, 0, 0, 0, 0, 0, 0, 0, 0, 0, 0], [49, 44, 42, 43, 30, 30, 47, 46, 43, 44, 31, 47, 32, 38, 40, 40, 48]], [[0, 0, 0, 0, 0, 0, 0, 0, 0, 0, 0, 0, 0, 0, 0, 0, 0], [0, 0, 0, 0, 0, 0, 0, 0, 0, 0, 0, 0, 0, 0, 0, 0, 0], [0, 0, 0, 0, 0, 0, 0, 0, 0, 0, 0, 0, 0, 0, 0, 0, 0], [0, 0, 0, 0, 0, 0, 0, 0, 0, 0, 0, 0, 0, 0, 0, 0, 0]]];
Q = [[51], [56], [46], [46]];

q = [[[13], [17], [7], [20], [13], [8], [8], [18], [5], [17], [15], [15], [24], [7], [21], [23], [23]], [[25], [12], [24], [13], [18], [7], [7], [19], [17], [24], [23], [22], [20], [18], [11], [8], [9]], [[6], [21], [5], [24], [25], [8], [6], [13], [9], [11], [12], [23], [7], [8], [21], [22], [5]], [[8], [20], [8], [25], [15], [10], [12], [5], [11], [6], [24], [13], [24], [6], [13], [9], [21]]];
p = [0.7, 0.5, 0.26, 0.96, 0.66, 0.25, 0.77, 0.14, 0.36, 0.53, 0.41, 0.41, 0.95, 0.59, 0.83, 0.41, 0.16];
